data/output/model.lp
/* Objective function */
min: -0.1 f[0][0] -0.1 f[0][1] -0.1 f[0][2] -0.1 f[0][3] -0.1 f[0][4] -0.1 f[0][5] -0.1 f[0][6] -0.1 f[0][7]
 -0.1 f[0][8] -0.1 f[0][9] -0.1 f[1][0] -0.1 f[1][1] -0.1 f[1][2] -0.1 f[1][3] -0.1 f[1][4] -0.1 f[1][5]
 -0.1 f[1][6] -0.1 f[1][7] -0.1 f[1][8] -0.1 f[1][9] -0.1 f[2][0] -0.1 f[2][1] -0.1 f[2][2] -0.1 f[2][3]
 -0.1 f[2][4] -0.1 f[2][5] -0.1 f[2][6] -0.1 f[2][7] -0.1 f[2][8] -0.1 f[2][9] -0.1 f[3][0] -0.1 f[3][1]
 -0.1 f[3][2] -0.1 f[3][3] -0.1 f[3][4] -0.1 f[3][5] -0.1 f[3][6] -0.1 f[3][7] -0.1 f[3][8] +f[3][9]
 +l[1][10] +l[1][1] +l[1][2] +l[1][3] +l[1][4] +l[1][5] +l[1][6] +l[1][7] +l[1][8] +l[1][9] +n[0][10]
 +n[0][1] +n[0][2] +n[0][3] +n[0][4] +n[0][5] +n[0][6] +n[0][7] +n[0][8] +n[0][9] +n[1][10] +n[1][1]
 +n[1][2] +n[1][3] +n[1][4] +n[1][5] +n[1][6] +n[1][7] +n[1][8] +n[1][9] +n[2][10] +n[2][1] +n[2][2]
 +n[2][3] +n[2][4] +n[2][5] +n[2][6] +n[2][7] +n[2][8] +n[2][9] +n[3][10] +n[3][1] +n[3][2] +n[3][3]
 +n[3][4] +n[3][5] +n[3][6] +n[3][7] +n[3][8] -0.1 n[3][9] -0.1 r[1][0] -0.1 r[1][1] -0.1 r[1][2] -0.1 r[1][3]
 -0.1 r[1][4] -0.1 r[1][5] -0.1 r[1][6] -0.1 r[1][7] -0.1 r[1][8];

/* Constraints */
MLCONS[1][9]: -f[0][8] +f[1][8] +n[0][9] -n[1][8] -r[1][8] = 0;
MLCONS[3][3]: -f[2][2] +f[3][2] -n[3][2] +n[3][3] = 0;
ORCONS[0][3]: +f[0][2] -0.33528 n[0][2] <= 0;
MLFLW_CNG[1][7]: +f[1][6] +0.08382 n[2][6] <= 0.52083125;
ORCONS[0][8]: +f[0][7] -0.33528 n[0][7] <= 0;
ORCONS[3][3]: +f[3][2] -0.33528 n[3][2] <= 0;
MLCONS[2][1]: -f[1][0] +f[2][0] -n[2][10] +n[2][1] = 0;
MLFLW_CNG[2][9]: +f[2][8] +0.08382 n[3][8] <= 3.125;
ORFLW_DEM[1][2]: -l[1][1] +r[1][1] <= 0.5555;
MLCONS[0][8]: +f[0][7] -n[0][7] +n[0][8] = 0.139;
MLFLW_CNG[0][3]: +f[0][2] +0.08382 n[1][2] +0.08382 r[1][2] <= 3.125;
ORCONS[1][8]: -l[1][7] +l[1][8] +r[1][7] = 0.5555;
ORCONS[2][5]: +f[2][4] -0.33528 n[2][4] <= 0;
MLCONS[0][0]: +n[0][10] = 0.139;
MLFLW_CNG[2][1]: +f[2][0] +0.08382 n[3][10] <= 3.125;
ORCONS[1][3]: -l[1][2] +l[1][3] +r[1][2] = 0.5555;
MLCONS[0][1]: +f[0][0] -n[0][10] +n[0][1] = 0.139;
MLCONS[1][8]: -f[0][7] +f[1][7] -n[1][7] +n[1][8] -r[1][7] = 0;
MLCONS[3][2]: -f[2][1] +f[3][1] -n[3][1] +n[3][2] = 0;
ORFLW_DEM[1][9]: -l[1][8] +r[1][8] <= 0.5555;
ORCONS[0][9]: +f[0][8] -0.33528 n[0][8] <= 0;
ORCONS[0][2]: +f[0][1] -0.33528 n[0][1] <= 0;
MLFLW_CNG[2][8]: +f[2][7] +0.08382 n[3][7] <= 3.125;
ORFLW_DEM[1][1]: -l[1][10] +r[1][0] <= 0.5555;
ORCONS[3][2]: +f[3][1] -0.33528 n[3][1] <= 0;
MLFLW_CNG[1][6]: +f[1][5] +0.08382 n[2][5] <= 0.52083125;
MLCONS[2][0]: -f[0][9] +f[1][9] +n[2][10] = 0;
ORCONS[1][9]: +f[3][9] -l[1][8] +r[1][8] = 0.5555;
MLCONS[0][9]: +f[0][8] +l[1][9] -n[0][8] = 0.139;
MLFLW_CNG[0][2]: +f[0][1] +0.08382 n[1][1] +0.08382 r[1][1] <= 3.125;
ORCONS[2][4]: +f[2][3] -0.33528 n[2][3] <= 0;
ORCONS[1][2]: -l[1][1] +l[1][2] +r[1][1] = 0.5555;
MLFLW_CNG[2][0]: +f[1][9] <= 3.125;
ORCONS[2][7]: +f[2][6] -0.33528 n[2][6] <= 0;
MLFLW_CNG[0][8]: +f[0][7] +0.08382 n[1][7] +0.08382 r[1][7] <= 3.125;
MLFLW_CNG[2][3]: +f[2][2] +0.08382 n[3][2] <= 3.125;
MLCONS[1][7]: -f[0][6] +f[1][6] -n[1][6] +n[1][7] -r[1][6] = 0;
ORCONS[3][1]: +f[3][0] -0.33528 n[3][10] <= 0;
MLCONS[0][6]: +f[0][5] -n[0][5] +n[0][6] = 0.139;
ORFLW_DEM[1][4]: -l[1][3] +r[1][3] <= 0.5555;
MLFLW_CNG[1][5]: +f[1][4] +0.08382 n[2][4] <= 0.52083125;
MLCONS[3][5]: -f[2][4] +f[3][4] -n[3][4] +n[3][5] = 0;
ORCONS[0][1]: +f[0][0] -0.33528 n[0][10] <= 0;
ORCONS[3][9]: +f[3][8] -0.33528 n[3][8] <= 0;
ORCONS[1][1]: -l[1][10] +l[1][1] +r[1][0] = 0.5555;
MLFLW_CNG[0][1]: +f[0][0] +0.08382 n[1][10] +0.08382 r[1][0] <= 3.125;
MLFLW_CNG[0][9]: +f[0][8] +0.08382 n[1][8] +0.08382 r[1][8] <= 3.125;
MLFLW_CNG[2][2]: +f[2][1] +0.08382 n[3][1] <= 3.125;
MLCONS[1][6]: -f[0][5] +f[1][5] -n[1][5] +n[1][6] -r[1][5] = 0;
MLCONS[0][7]: +f[0][6] -n[0][6] +n[0][7] = 0.139;
ORFLW_DEM[1][3]: -l[1][2] +r[1][2] <= 0.5555;
ORCONS[0][0]: 0 f[0][0] <= 0;
ORCONS[3][0]: +f[2][9] <= 0;
MLCONS[3][4]: -f[2][3] +f[3][3] -n[3][3] +n[3][4] = 0;
MLFLW_CNG[1][4]: +f[1][3] +0.08382 n[2][3] <= 0.52083125;
ORCONS[3][8]: +f[3][7] -0.33528 n[3][7] <= 0;
ORCONS[1][0]: +l[1][10] +n[3][9] = 0.5555;
MLFLW_CNG[0][0]: +0.08382 n[3][9] <= 3.125;
ORCONS[2][6]: +f[2][5] -0.33528 n[2][5] <= 0;
ORCONS[0][4]: +f[0][3] -0.33528 n[0][3] <= 0;
MLFLW_CNG[0][6]: +f[0][5] +0.08382 n[1][5] +0.08382 r[1][5] <= 3.125;
MLCONS[2][5]: -f[1][4] +f[2][4] -n[2][4] +n[2][5] = 0;
MLCONS[2][6]: -f[1][5] +f[2][5] -n[2][5] +n[2][6] = 0;
MLCONS[1][5]: -f[0][4] +f[1][4] -n[1][4] +n[1][5] -r[1][4] = 0;
ORCONS[2][1]: +f[2][0] -0.33528 n[2][10] <= 0;
MLCONS[0][4]: +f[0][3] -n[0][3] +n[0][4] = 0.139;
ORCONS[1][7]: -l[1][6] +l[1][7] +r[1][6] = 0.5555;
ORCONS[2][9]: +f[2][8] -0.33528 n[2][8] <= 0;
ORFLW_DEM[1][6]: -l[1][5] +r[1][5] <= 0.5555;
MLCONS[3][7]: -f[2][6] +f[3][6] -n[3][6] +n[3][7] = 0;
MLFLW_CNG[1][3]: +f[1][2] +0.08382 n[2][2] <= 0.52083125;
MLFLW_CNG[2][5]: +f[2][4] +0.08382 n[3][4] <= 3.125;
ORCONS[3][7]: +f[3][6] -0.33528 n[3][6] <= 0;
MLFLW_CNG[0][7]: +f[0][6] +0.08382 n[1][6] +0.08382 r[1][6] <= 3.125;
MLCONS[2][4]: -f[1][3] +f[2][3] -n[2][3] +n[2][4] = 0;
ORCONS[2][0]: +f[1][9] <= 0;
MLCONS[1][4]: -f[0][3] +f[1][3] -n[1][3] +n[1][4] -r[1][3] = 0;
MLCONS[2][7]: -f[1][6] +f[2][6] -n[2][6] +n[2][7] = 0;
ORCONS[1][6]: -l[1][5] +l[1][6] +r[1][5] = 0.5555;
MLCONS[0][5]: +f[0][4] -n[0][4] +n[0][5] = 0.139;
ORCONS[2][8]: +f[2][7] -0.33528 n[2][7] <= 0;
ORFLW_DEM[1][5]: -l[1][4] +r[1][4] <= 0.5555;
ORCONS[3][6]: +f[3][5] -0.33528 n[3][5] <= 0;
MLFLW_CNG[1][2]: +f[1][1] +0.08382 n[2][1] <= 0.52083125;
MLFLW_CNG[2][4]: +f[2][3] +0.08382 n[3][3] <= 3.125;
MLCONS[3][6]: -f[2][5] +f[3][5] -n[3][5] +n[3][6] = 0;
ORCONS[0][5]: +f[0][4] -0.33528 n[0][4] <= 0;
MLCONS[2][8]: -f[1][7] +f[2][7] -n[2][7] +n[2][8] = 0;
MLCONS[1][3]: -f[0][2] +f[1][2] -n[1][2] +n[1][3] -r[1][2] = 0;
MLCONS[2][3]: -f[1][2] +f[2][2] -n[2][2] +n[2][3] = 0;
ORCONS[2][3]: +f[2][2] -0.33528 n[2][2] <= 0;
MLFLW_CNG[0][4]: +f[0][3] +0.08382 n[1][3] +0.08382 r[1][3] <= 3.125;
MLFLW_CNG[1][8]: +f[1][7] +0.08382 n[2][7] <= 0.52083125;
MLCONS[0][2]: +f[0][1] -n[0][1] +n[0][2] = 0.139;
MLCONS[3][1]: -f[2][0] +f[3][0] -n[3][10] +n[3][1] = 0;
ORCONS[1][5]: -l[1][4] +l[1][5] +r[1][4] = 0.5555;
ORFLW_DEM[1][8]: -l[1][7] +r[1][7] <= 0.5555;
MLFLW_CNG[2][7]: +f[2][6] +0.08382 n[3][6] <= 3.125;
ORCONS[0][6]: +f[0][5] -0.33528 n[0][5] <= 0;
MLCONS[3][9]: -f[2][8] +f[3][8] +n[2][9] -n[3][8] = 0;
ORCONS[3][5]: +f[3][4] -0.33528 n[3][4] <= 0;
MLFLW_CNG[1][1]: +f[1][0] +0.08382 n[2][10] <= 0.52083125;
MLCONS[1][1]: -f[0][0] +f[1][0] -n[1][10] +n[1][1] -r[1][0] = 0;
MLCONS[2][9]: -f[1][8] +f[2][8] +n[1][9] -n[2][8] = 0;
MLCONS[1][2]: -f[0][1] +f[1][1] -n[1][1] +n[1][2] -r[1][1] = 0;
MLFLW_CNG[1][9]: +f[1][8] +0.08382 n[2][8] <= 0.52083125;
MLFLW_CNG[1][0]: +f[0][9] <= 0.52083125;
ORCONS[2][2]: +f[2][1] -0.33528 n[2][1] <= 0;
MLFLW_CNG[0][5]: +f[0][4] +0.08382 n[1][4] +0.08382 r[1][4] <= 3.125;
ORFLW_DEM[1][0]: +n[3][9] <= 0.5555;
MLCONS[0][3]: +f[0][2] -n[0][2] +n[0][3] = 0.139;
ORCONS[1][4]: -l[1][3] +l[1][4] +r[1][3] = 0.5555;
MLCONS[3][0]: -f[1][9] +f[2][9] +n[3][10] = 0;
ORFLW_DEM[1][7]: -l[1][6] +r[1][6] <= 0.5555;
MLCONS[3][8]: -f[2][7] +f[3][7] -n[3][7] +n[3][8] = 0;
MLCONS[2][2]: -f[1][1] +f[2][1] -n[2][1] +n[2][2] = 0;
ORCONS[0][7]: +f[0][6] -0.33528 n[0][6] <= 0;
MLFLW_CNG[2][6]: +f[2][5] +0.08382 n[3][5] <= 3.125;
MLCONS[1][0]: +f[0][9] +n[1][10] -n[3][9] = 0;
ORCONS[3][4]: +f[3][3] -0.33528 n[3][3] <= 0;
ORFLW_POS[1][7]: +r[1][6] >= 0;
MLFLW_CAP[2][5]: +f[2][4] <= 0.416665;
ORFLW_POS[1][2]: +r[1][1] >= 0;
MLFLW_CAP[1][8]: +f[1][7] <= 2.5;
MLFLW_CAP[3][3]: +f[3][2] <= 2.5;
MLFLW_CAP[0][8]: +f[0][7] <= 2.5;
MLFLW_CAP[1][9]: +f[1][8] <= 2.5;
MLFLW_CAP[0][0]: 0 f[0][0] <= 2.5;
MLFLW_CAP[2][1]: +f[2][0] <= 0.416665;
MLFLW_CAP[3][7]: +f[3][6] <= 2.5;
MLFLW_CAP[1][3]: +f[1][2] <= 2.5;
ORFLW_POS[1][8]: +r[1][7] >= 0;
ORFLW_POS[1][3]: +r[1][2] >= 0;
MLFLW_CAP[2][4]: +f[2][3] <= 0.416665;
MLFLW_CAP[1][7]: +f[1][6] <= 2.5;
MLFLW_CAP[0][7]: +f[0][6] <= 2.5;
MLFLW_CAP[3][2]: +f[3][1] <= 2.5;
MLFLW_CAP[2][9]: +f[2][8] <= 0.416665;
MLFLW_CAP[1][6]: +f[1][5] <= 2.5;
MLFLW_CAP[2][0]: +f[1][9] <= 0.416665;
MLFLW_CAP[1][2]: +f[1][1] <= 2.5;
MLFLW_CAP[0][1]: +f[0][0] <= 2.5;
MLFLW_CAP[3][6]: +f[3][5] <= 2.5;
ORFLW_POS[1][9]: +r[1][8] >= 0;
ORFLW_POS[1][4]: +r[1][3] >= 0;
MLFLW_CAP[2][7]: +f[2][6] <= 0.416665;
MLFLW_CAP[0][5]: +f[0][4] <= 2.5;
ORFLW_POS[1][0]: +n[3][9] >= 0;
MLFLW_CAP[1][5]: +f[1][4] <= 2.5;
MLFLW_CAP[3][1]: +f[3][0] <= 2.5;
MLFLW_CAP[0][6]: +f[0][5] <= 2.5;
MLFLW_CAP[0][2]: +f[0][1] <= 2.5;
MLFLW_CAP[3][5]: +f[3][4] <= 2.5;
MLFLW_CAP[2][8]: +f[2][7] <= 0.416665;
MLFLW_CAP[1][1]: +f[1][0] <= 2.5;
MLFLW_CAP[2][3]: +f[2][2] <= 0.416665;
ORFLW_POS[1][5]: +r[1][4] >= 0;
MLFLW_CAP[3][8]: +f[3][7] <= 2.5;
MLFLW_CAP[2][6]: +f[2][5] <= 0.416665;
ORFLW_POS[1][1]: +r[1][0] >= 0;
MLFLW_CAP[0][4]: +f[0][3] <= 2.5;
MLFLW_CAP[1][4]: +f[1][3] <= 2.5;
MLFLW_CAP[0][3]: +f[0][2] <= 2.5;
MLFLW_CAP[3][0]: +f[2][9] <= 2.5;
ORFLW_POS[1][6]: +r[1][5] >= 0;
MLFLW_CAP[1][0]: +f[0][9] <= 2.5;
MLFLW_CAP[2][2]: +f[2][1] <= 0.416665;
MLFLW_CAP[3][4]: +f[3][3] <= 2.5;
MLFLW_CAP[3][9]: +f[3][8] <= 2.5;
MLFLW_CAP[0][9]: +f[0][8] <= 2.5;
