data/output/model.mps
*<meta creator='lp_solve v5.5'>
*<meta rows=4>
*<meta columns=2>
*<meta equalities=0>
*<meta integers=0>
*<meta origsense='MAX'>
*
NAME                  
ROWS
 N  R0      
 L  3       
 L  2       
 L  1       
 L  ub_x    
COLUMNS
    x         R0        -143.0000000   3         1.0000000000
    x         2         110.00000000   1         120.00000000
    x         ub_x      1.0000000000
    y         R0        -60.00000000   3         1.0000000000
    y         2         30.000000000   1         210.00000000
RHS
    RHS       3         75.000000000   2         4000.0000000
    RHS       1         15000.000000   ub_x      16.000000000
ENDATA
